c created by edge2cnf
p cnf 500 3100
-1 -2 0
-1 -3 0
-1 -4 0
-1 -5 0
-2 -3 0
-2 -4 0
-2 -5 0
-3 -4 0
-3 -5 0
-4 -5 0
1 2 3 4 5 0
-6 -7 0
-6 -8 0
-6 -9 0
-6 -10 0
-7 -8 0
-7 -9 0
-7 -10 0
-8 -9 0
-8 -10 0
-9 -10 0
6 7 8 9 10 0
-11 -12 0
-11 -13 0
-11 -14 0
-11 -15 0
-12 -13 0
-12 -14 0
-12 -15 0
-13 -14 0
-13 -15 0
-14 -15 0
11 12 13 14 15 0
-16 -17 0
-16 -18 0
-16 -19 0
-16 -20 0
-17 -18 0
-17 -19 0
-17 -20 0
-18 -19 0
-18 -20 0
-19 -20 0
16 17 18 19 20 0
-21 -22 0
-21 -23 0
-21 -24 0
-21 -25 0
-22 -23 0
-22 -24 0
-22 -25 0
-23 -24 0
-23 -25 0
-24 -25 0
21 22 23 24 25 0
-26 -27 0
-26 -28 0
-26 -29 0
-26 -30 0
-27 -28 0
-27 -29 0
-27 -30 0
-28 -29 0
-28 -30 0
-29 -30 0
26 27 28 29 30 0
-31 -32 0
-31 -33 0
-31 -34 0
-31 -35 0
-32 -33 0
-32 -34 0
-32 -35 0
-33 -34 0
-33 -35 0
-34 -35 0
31 32 33 34 35 0
-36 -37 0
-36 -38 0
-36 -39 0
-36 -40 0
-37 -38 0
-37 -39 0
-37 -40 0
-38 -39 0
-38 -40 0
-39 -40 0
36 37 38 39 40 0
-41 -42 0
-41 -43 0
-41 -44 0
-41 -45 0
-42 -43 0
-42 -44 0
-42 -45 0
-43 -44 0
-43 -45 0
-44 -45 0
41 42 43 44 45 0
-46 -47 0
-46 -48 0
-46 -49 0
-46 -50 0
-47 -48 0
-47 -49 0
-47 -50 0
-48 -49 0
-48 -50 0
-49 -50 0
46 47 48 49 50 0
-51 -52 0
-51 -53 0
-51 -54 0
-51 -55 0
-52 -53 0
-52 -54 0
-52 -55 0
-53 -54 0
-53 -55 0
-54 -55 0
51 52 53 54 55 0
-56 -57 0
-56 -58 0
-56 -59 0
-56 -60 0
-57 -58 0
-57 -59 0
-57 -60 0
-58 -59 0
-58 -60 0
-59 -60 0
56 57 58 59 60 0
-61 -62 0
-61 -63 0
-61 -64 0
-61 -65 0
-62 -63 0
-62 -64 0
-62 -65 0
-63 -64 0
-63 -65 0
-64 -65 0
61 62 63 64 65 0
-66 -67 0
-66 -68 0
-66 -69 0
-66 -70 0
-67 -68 0
-67 -69 0
-67 -70 0
-68 -69 0
-68 -70 0
-69 -70 0
66 67 68 69 70 0
-71 -72 0
-71 -73 0
-71 -74 0
-71 -75 0
-72 -73 0
-72 -74 0
-72 -75 0
-73 -74 0
-73 -75 0
-74 -75 0
71 72 73 74 75 0
-76 -77 0
-76 -78 0
-76 -79 0
-76 -80 0
-77 -78 0
-77 -79 0
-77 -80 0
-78 -79 0
-78 -80 0
-79 -80 0
76 77 78 79 80 0
-81 -82 0
-81 -83 0
-81 -84 0
-81 -85 0
-82 -83 0
-82 -84 0
-82 -85 0
-83 -84 0
-83 -85 0
-84 -85 0
81 82 83 84 85 0
-86 -87 0
-86 -88 0
-86 -89 0
-86 -90 0
-87 -88 0
-87 -89 0
-87 -90 0
-88 -89 0
-88 -90 0
-89 -90 0
86 87 88 89 90 0
-91 -92 0
-91 -93 0
-91 -94 0
-91 -95 0
-92 -93 0
-92 -94 0
-92 -95 0
-93 -94 0
-93 -95 0
-94 -95 0
91 92 93 94 95 0
-96 -97 0
-96 -98 0
-96 -99 0
-96 -100 0
-97 -98 0
-97 -99 0
-97 -100 0
-98 -99 0
-98 -100 0
-99 -100 0
96 97 98 99 100 0
-101 -102 0
-101 -103 0
-101 -104 0
-101 -105 0
-102 -103 0
-102 -104 0
-102 -105 0
-103 -104 0
-103 -105 0
-104 -105 0
101 102 103 104 105 0
-106 -107 0
-106 -108 0
-106 -109 0
-106 -110 0
-107 -108 0
-107 -109 0
-107 -110 0
-108 -109 0
-108 -110 0
-109 -110 0
106 107 108 109 110 0
-111 -112 0
-111 -113 0
-111 -114 0
-111 -115 0
-112 -113 0
-112 -114 0
-112 -115 0
-113 -114 0
-113 -115 0
-114 -115 0
111 112 113 114 115 0
-116 -117 0
-116 -118 0
-116 -119 0
-116 -120 0
-117 -118 0
-117 -119 0
-117 -120 0
-118 -119 0
-118 -120 0
-119 -120 0
116 117 118 119 120 0
-121 -122 0
-121 -123 0
-121 -124 0
-121 -125 0
-122 -123 0
-122 -124 0
-122 -125 0
-123 -124 0
-123 -125 0
-124 -125 0
121 122 123 124 125 0
-126 -127 0
-126 -128 0
-126 -129 0
-126 -130 0
-127 -128 0
-127 -129 0
-127 -130 0
-128 -129 0
-128 -130 0
-129 -130 0
126 127 128 129 130 0
-131 -132 0
-131 -133 0
-131 -134 0
-131 -135 0
-132 -133 0
-132 -134 0
-132 -135 0
-133 -134 0
-133 -135 0
-134 -135 0
131 132 133 134 135 0
-136 -137 0
-136 -138 0
-136 -139 0
-136 -140 0
-137 -138 0
-137 -139 0
-137 -140 0
-138 -139 0
-138 -140 0
-139 -140 0
136 137 138 139 140 0
-141 -142 0
-141 -143 0
-141 -144 0
-141 -145 0
-142 -143 0
-142 -144 0
-142 -145 0
-143 -144 0
-143 -145 0
-144 -145 0
141 142 143 144 145 0
-146 -147 0
-146 -148 0
-146 -149 0
-146 -150 0
-147 -148 0
-147 -149 0
-147 -150 0
-148 -149 0
-148 -150 0
-149 -150 0
146 147 148 149 150 0
-151 -152 0
-151 -153 0
-151 -154 0
-151 -155 0
-152 -153 0
-152 -154 0
-152 -155 0
-153 -154 0
-153 -155 0
-154 -155 0
151 152 153 154 155 0
-156 -157 0
-156 -158 0
-156 -159 0
-156 -160 0
-157 -158 0
-157 -159 0
-157 -160 0
-158 -159 0
-158 -160 0
-159 -160 0
156 157 158 159 160 0
-161 -162 0
-161 -163 0
-161 -164 0
-161 -165 0
-162 -163 0
-162 -164 0
-162 -165 0
-163 -164 0
-163 -165 0
-164 -165 0
161 162 163 164 165 0
-166 -167 0
-166 -168 0
-166 -169 0
-166 -170 0
-167 -168 0
-167 -169 0
-167 -170 0
-168 -169 0
-168 -170 0
-169 -170 0
166 167 168 169 170 0
-171 -172 0
-171 -173 0
-171 -174 0
-171 -175 0
-172 -173 0
-172 -174 0
-172 -175 0
-173 -174 0
-173 -175 0
-174 -175 0
171 172 173 174 175 0
-176 -177 0
-176 -178 0
-176 -179 0
-176 -180 0
-177 -178 0
-177 -179 0
-177 -180 0
-178 -179 0
-178 -180 0
-179 -180 0
176 177 178 179 180 0
-181 -182 0
-181 -183 0
-181 -184 0
-181 -185 0
-182 -183 0
-182 -184 0
-182 -185 0
-183 -184 0
-183 -185 0
-184 -185 0
181 182 183 184 185 0
-186 -187 0
-186 -188 0
-186 -189 0
-186 -190 0
-187 -188 0
-187 -189 0
-187 -190 0
-188 -189 0
-188 -190 0
-189 -190 0
186 187 188 189 190 0
-191 -192 0
-191 -193 0
-191 -194 0
-191 -195 0
-192 -193 0
-192 -194 0
-192 -195 0
-193 -194 0
-193 -195 0
-194 -195 0
191 192 193 194 195 0
-196 -197 0
-196 -198 0
-196 -199 0
-196 -200 0
-197 -198 0
-197 -199 0
-197 -200 0
-198 -199 0
-198 -200 0
-199 -200 0
196 197 198 199 200 0
-201 -202 0
-201 -203 0
-201 -204 0
-201 -205 0
-202 -203 0
-202 -204 0
-202 -205 0
-203 -204 0
-203 -205 0
-204 -205 0
201 202 203 204 205 0
-206 -207 0
-206 -208 0
-206 -209 0
-206 -210 0
-207 -208 0
-207 -209 0
-207 -210 0
-208 -209 0
-208 -210 0
-209 -210 0
206 207 208 209 210 0
-211 -212 0
-211 -213 0
-211 -214 0
-211 -215 0
-212 -213 0
-212 -214 0
-212 -215 0
-213 -214 0
-213 -215 0
-214 -215 0
211 212 213 214 215 0
-216 -217 0
-216 -218 0
-216 -219 0
-216 -220 0
-217 -218 0
-217 -219 0
-217 -220 0
-218 -219 0
-218 -220 0
-219 -220 0
216 217 218 219 220 0
-221 -222 0
-221 -223 0
-221 -224 0
-221 -225 0
-222 -223 0
-222 -224 0
-222 -225 0
-223 -224 0
-223 -225 0
-224 -225 0
221 222 223 224 225 0
-226 -227 0
-226 -228 0
-226 -229 0
-226 -230 0
-227 -228 0
-227 -229 0
-227 -230 0
-228 -229 0
-228 -230 0
-229 -230 0
226 227 228 229 230 0
-231 -232 0
-231 -233 0
-231 -234 0
-231 -235 0
-232 -233 0
-232 -234 0
-232 -235 0
-233 -234 0
-233 -235 0
-234 -235 0
231 232 233 234 235 0
-236 -237 0
-236 -238 0
-236 -239 0
-236 -240 0
-237 -238 0
-237 -239 0
-237 -240 0
-238 -239 0
-238 -240 0
-239 -240 0
236 237 238 239 240 0
-241 -242 0
-241 -243 0
-241 -244 0
-241 -245 0
-242 -243 0
-242 -244 0
-242 -245 0
-243 -244 0
-243 -245 0
-244 -245 0
241 242 243 244 245 0
-246 -247 0
-246 -248 0
-246 -249 0
-246 -250 0
-247 -248 0
-247 -249 0
-247 -250 0
-248 -249 0
-248 -250 0
-249 -250 0
246 247 248 249 250 0
-251 -252 0
-251 -253 0
-251 -254 0
-251 -255 0
-252 -253 0
-252 -254 0
-252 -255 0
-253 -254 0
-253 -255 0
-254 -255 0
251 252 253 254 255 0
-256 -257 0
-256 -258 0
-256 -259 0
-256 -260 0
-257 -258 0
-257 -259 0
-257 -260 0
-258 -259 0
-258 -260 0
-259 -260 0
256 257 258 259 260 0
-261 -262 0
-261 -263 0
-261 -264 0
-261 -265 0
-262 -263 0
-262 -264 0
-262 -265 0
-263 -264 0
-263 -265 0
-264 -265 0
261 262 263 264 265 0
-266 -267 0
-266 -268 0
-266 -269 0
-266 -270 0
-267 -268 0
-267 -269 0
-267 -270 0
-268 -269 0
-268 -270 0
-269 -270 0
266 267 268 269 270 0
-271 -272 0
-271 -273 0
-271 -274 0
-271 -275 0
-272 -273 0
-272 -274 0
-272 -275 0
-273 -274 0
-273 -275 0
-274 -275 0
271 272 273 274 275 0
-276 -277 0
-276 -278 0
-276 -279 0
-276 -280 0
-277 -278 0
-277 -279 0
-277 -280 0
-278 -279 0
-278 -280 0
-279 -280 0
276 277 278 279 280 0
-281 -282 0
-281 -283 0
-281 -284 0
-281 -285 0
-282 -283 0
-282 -284 0
-282 -285 0
-283 -284 0
-283 -285 0
-284 -285 0
281 282 283 284 285 0
-286 -287 0
-286 -288 0
-286 -289 0
-286 -290 0
-287 -288 0
-287 -289 0
-287 -290 0
-288 -289 0
-288 -290 0
-289 -290 0
286 287 288 289 290 0
-291 -292 0
-291 -293 0
-291 -294 0
-291 -295 0
-292 -293 0
-292 -294 0
-292 -295 0
-293 -294 0
-293 -295 0
-294 -295 0
291 292 293 294 295 0
-296 -297 0
-296 -298 0
-296 -299 0
-296 -300 0
-297 -298 0
-297 -299 0
-297 -300 0
-298 -299 0
-298 -300 0
-299 -300 0
296 297 298 299 300 0
-301 -302 0
-301 -303 0
-301 -304 0
-301 -305 0
-302 -303 0
-302 -304 0
-302 -305 0
-303 -304 0
-303 -305 0
-304 -305 0
301 302 303 304 305 0
-306 -307 0
-306 -308 0
-306 -309 0
-306 -310 0
-307 -308 0
-307 -309 0
-307 -310 0
-308 -309 0
-308 -310 0
-309 -310 0
306 307 308 309 310 0
-311 -312 0
-311 -313 0
-311 -314 0
-311 -315 0
-312 -313 0
-312 -314 0
-312 -315 0
-313 -314 0
-313 -315 0
-314 -315 0
311 312 313 314 315 0
-316 -317 0
-316 -318 0
-316 -319 0
-316 -320 0
-317 -318 0
-317 -319 0
-317 -320 0
-318 -319 0
-318 -320 0
-319 -320 0
316 317 318 319 320 0
-321 -322 0
-321 -323 0
-321 -324 0
-321 -325 0
-322 -323 0
-322 -324 0
-322 -325 0
-323 -324 0
-323 -325 0
-324 -325 0
321 322 323 324 325 0
-326 -327 0
-326 -328 0
-326 -329 0
-326 -330 0
-327 -328 0
-327 -329 0
-327 -330 0
-328 -329 0
-328 -330 0
-329 -330 0
326 327 328 329 330 0
-331 -332 0
-331 -333 0
-331 -334 0
-331 -335 0
-332 -333 0
-332 -334 0
-332 -335 0
-333 -334 0
-333 -335 0
-334 -335 0
331 332 333 334 335 0
-336 -337 0
-336 -338 0
-336 -339 0
-336 -340 0
-337 -338 0
-337 -339 0
-337 -340 0
-338 -339 0
-338 -340 0
-339 -340 0
336 337 338 339 340 0
-341 -342 0
-341 -343 0
-341 -344 0
-341 -345 0
-342 -343 0
-342 -344 0
-342 -345 0
-343 -344 0
-343 -345 0
-344 -345 0
341 342 343 344 345 0
-346 -347 0
-346 -348 0
-346 -349 0
-346 -350 0
-347 -348 0
-347 -349 0
-347 -350 0
-348 -349 0
-348 -350 0
-349 -350 0
346 347 348 349 350 0
-351 -352 0
-351 -353 0
-351 -354 0
-351 -355 0
-352 -353 0
-352 -354 0
-352 -355 0
-353 -354 0
-353 -355 0
-354 -355 0
351 352 353 354 355 0
-356 -357 0
-356 -358 0
-356 -359 0
-356 -360 0
-357 -358 0
-357 -359 0
-357 -360 0
-358 -359 0
-358 -360 0
-359 -360 0
356 357 358 359 360 0
-361 -362 0
-361 -363 0
-361 -364 0
-361 -365 0
-362 -363 0
-362 -364 0
-362 -365 0
-363 -364 0
-363 -365 0
-364 -365 0
361 362 363 364 365 0
-366 -367 0
-366 -368 0
-366 -369 0
-366 -370 0
-367 -368 0
-367 -369 0
-367 -370 0
-368 -369 0
-368 -370 0
-369 -370 0
366 367 368 369 370 0
-371 -372 0
-371 -373 0
-371 -374 0
-371 -375 0
-372 -373 0
-372 -374 0
-372 -375 0
-373 -374 0
-373 -375 0
-374 -375 0
371 372 373 374 375 0
-376 -377 0
-376 -378 0
-376 -379 0
-376 -380 0
-377 -378 0
-377 -379 0
-377 -380 0
-378 -379 0
-378 -380 0
-379 -380 0
376 377 378 379 380 0
-381 -382 0
-381 -383 0
-381 -384 0
-381 -385 0
-382 -383 0
-382 -384 0
-382 -385 0
-383 -384 0
-383 -385 0
-384 -385 0
381 382 383 384 385 0
-386 -387 0
-386 -388 0
-386 -389 0
-386 -390 0
-387 -388 0
-387 -389 0
-387 -390 0
-388 -389 0
-388 -390 0
-389 -390 0
386 387 388 389 390 0
-391 -392 0
-391 -393 0
-391 -394 0
-391 -395 0
-392 -393 0
-392 -394 0
-392 -395 0
-393 -394 0
-393 -395 0
-394 -395 0
391 392 393 394 395 0
-396 -397 0
-396 -398 0
-396 -399 0
-396 -400 0
-397 -398 0
-397 -399 0
-397 -400 0
-398 -399 0
-398 -400 0
-399 -400 0
396 397 398 399 400 0
-401 -402 0
-401 -403 0
-401 -404 0
-401 -405 0
-402 -403 0
-402 -404 0
-402 -405 0
-403 -404 0
-403 -405 0
-404 -405 0
401 402 403 404 405 0
-406 -407 0
-406 -408 0
-406 -409 0
-406 -410 0
-407 -408 0
-407 -409 0
-407 -410 0
-408 -409 0
-408 -410 0
-409 -410 0
406 407 408 409 410 0
-411 -412 0
-411 -413 0
-411 -414 0
-411 -415 0
-412 -413 0
-412 -414 0
-412 -415 0
-413 -414 0
-413 -415 0
-414 -415 0
411 412 413 414 415 0
-416 -417 0
-416 -418 0
-416 -419 0
-416 -420 0
-417 -418 0
-417 -419 0
-417 -420 0
-418 -419 0
-418 -420 0
-419 -420 0
416 417 418 419 420 0
-421 -422 0
-421 -423 0
-421 -424 0
-421 -425 0
-422 -423 0
-422 -424 0
-422 -425 0
-423 -424 0
-423 -425 0
-424 -425 0
421 422 423 424 425 0
-426 -427 0
-426 -428 0
-426 -429 0
-426 -430 0
-427 -428 0
-427 -429 0
-427 -430 0
-428 -429 0
-428 -430 0
-429 -430 0
426 427 428 429 430 0
-431 -432 0
-431 -433 0
-431 -434 0
-431 -435 0
-432 -433 0
-432 -434 0
-432 -435 0
-433 -434 0
-433 -435 0
-434 -435 0
431 432 433 434 435 0
-436 -437 0
-436 -438 0
-436 -439 0
-436 -440 0
-437 -438 0
-437 -439 0
-437 -440 0
-438 -439 0
-438 -440 0
-439 -440 0
436 437 438 439 440 0
-441 -442 0
-441 -443 0
-441 -444 0
-441 -445 0
-442 -443 0
-442 -444 0
-442 -445 0
-443 -444 0
-443 -445 0
-444 -445 0
441 442 443 444 445 0
-446 -447 0
-446 -448 0
-446 -449 0
-446 -450 0
-447 -448 0
-447 -449 0
-447 -450 0
-448 -449 0
-448 -450 0
-449 -450 0
446 447 448 449 450 0
-451 -452 0
-451 -453 0
-451 -454 0
-451 -455 0
-452 -453 0
-452 -454 0
-452 -455 0
-453 -454 0
-453 -455 0
-454 -455 0
451 452 453 454 455 0
-456 -457 0
-456 -458 0
-456 -459 0
-456 -460 0
-457 -458 0
-457 -459 0
-457 -460 0
-458 -459 0
-458 -460 0
-459 -460 0
456 457 458 459 460 0
-461 -462 0
-461 -463 0
-461 -464 0
-461 -465 0
-462 -463 0
-462 -464 0
-462 -465 0
-463 -464 0
-463 -465 0
-464 -465 0
461 462 463 464 465 0
-466 -467 0
-466 -468 0
-466 -469 0
-466 -470 0
-467 -468 0
-467 -469 0
-467 -470 0
-468 -469 0
-468 -470 0
-469 -470 0
466 467 468 469 470 0
-471 -472 0
-471 -473 0
-471 -474 0
-471 -475 0
-472 -473 0
-472 -474 0
-472 -475 0
-473 -474 0
-473 -475 0
-474 -475 0
471 472 473 474 475 0
-476 -477 0
-476 -478 0
-476 -479 0
-476 -480 0
-477 -478 0
-477 -479 0
-477 -480 0
-478 -479 0
-478 -480 0
-479 -480 0
476 477 478 479 480 0
-481 -482 0
-481 -483 0
-481 -484 0
-481 -485 0
-482 -483 0
-482 -484 0
-482 -485 0
-483 -484 0
-483 -485 0
-484 -485 0
481 482 483 484 485 0
-486 -487 0
-486 -488 0
-486 -489 0
-486 -490 0
-487 -488 0
-487 -489 0
-487 -490 0
-488 -489 0
-488 -490 0
-489 -490 0
486 487 488 489 490 0
-491 -492 0
-491 -493 0
-491 -494 0
-491 -495 0
-492 -493 0
-492 -494 0
-492 -495 0
-493 -494 0
-493 -495 0
-494 -495 0
491 492 493 494 495 0
-496 -497 0
-496 -498 0
-496 -499 0
-496 -500 0
-497 -498 0
-497 -499 0
-497 -500 0
-498 -499 0
-498 -500 0
-499 -500 0
496 497 498 499 500 0
-6 -21 0
-7 -22 0
-8 -23 0
-9 -24 0
-10 -25 0
-11 -16 0
-12 -17 0
-13 -18 0
-14 -19 0
-15 -20 0
-21 -31 0
-22 -32 0
-23 -33 0
-24 -34 0
-25 -35 0
-66 -71 0
-67 -72 0
-68 -73 0
-69 -74 0
-70 -75 0
-121 -131 0
-122 -132 0
-123 -133 0
-124 -134 0
-125 -135 0
-131 -141 0
-132 -142 0
-133 -143 0
-134 -144 0
-135 -145 0
-146 -151 0
-147 -152 0
-148 -153 0
-149 -154 0
-150 -155 0
-171 -191 0
-172 -192 0
-173 -193 0
-174 -194 0
-175 -195 0
-186 -201 0
-187 -202 0
-188 -203 0
-189 -204 0
-190 -205 0
-191 -196 0
-192 -197 0
-193 -198 0
-194 -199 0
-195 -200 0
-196 -201 0
-197 -202 0
-198 -203 0
-199 -204 0
-200 -205 0
-216 -236 0
-217 -237 0
-218 -238 0
-219 -239 0
-220 -240 0
-226 -231 0
-227 -232 0
-228 -233 0
-229 -234 0
-230 -235 0
-231 -246 0
-232 -247 0
-233 -248 0
-234 -249 0
-235 -250 0
-246 -266 0
-247 -267 0
-248 -268 0
-249 -269 0
-250 -270 0
-251 -271 0
-252 -272 0
-253 -273 0
-254 -274 0
-255 -275 0
-276 -286 0
-277 -287 0
-278 -288 0
-279 -289 0
-280 -290 0
-286 -291 0
-287 -292 0
-288 -293 0
-289 -294 0
-290 -295 0
-301 -321 0
-302 -322 0
-303 -323 0
-304 -324 0
-305 -325 0
-311 -326 0
-312 -327 0
-313 -328 0
-314 -329 0
-315 -330 0
-316 -331 0
-317 -332 0
-318 -333 0
-319 -334 0
-320 -335 0
-331 -336 0
-332 -337 0
-333 -338 0
-334 -339 0
-335 -340 0
-336 -341 0
-337 -342 0
-338 -343 0
-339 -344 0
-340 -345 0
-341 -356 0
-342 -357 0
-343 -358 0
-344 -359 0
-345 -360 0
-346 -356 0
-347 -357 0
-348 -358 0
-349 -359 0
-350 -360 0
-351 -361 0
-352 -362 0
-353 -363 0
-354 -364 0
-355 -365 0
-356 -376 0
-357 -377 0
-358 -378 0
-359 -379 0
-360 -380 0
-406 -411 0
-407 -412 0
-408 -413 0
-409 -414 0
-410 -415 0
-436 -441 0
-437 -442 0
-438 -443 0
-439 -444 0
-440 -445 0
-471 -476 0
-472 -477 0
-473 -478 0
-474 -479 0
-475 -480 0
-471 -481 0
-472 -482 0
-473 -483 0
-474 -484 0
-475 -485 0
-1 -486 0
-2 -487 0
-3 -488 0
-4 -489 0
-5 -490 0
-1 -121 0
-2 -122 0
-3 -123 0
-4 -124 0
-5 -125 0
-1 -271 0
-2 -272 0
-3 -273 0
-4 -274 0
-5 -275 0
-1 -281 0
-2 -282 0
-3 -283 0
-4 -284 0
-5 -285 0
-1 -341 0
-2 -342 0
-3 -343 0
-4 -344 0
-5 -345 0
-1 -361 0
-2 -362 0
-3 -363 0
-4 -364 0
-5 -365 0
-1 -406 0
-2 -407 0
-3 -408 0
-4 -409 0
-5 -410 0
-1 -416 0
-2 -417 0
-3 -418 0
-4 -419 0
-5 -420 0
-1 -461 0
-2 -462 0
-3 -463 0
-4 -464 0
-5 -465 0
-6 -41 0
-7 -42 0
-8 -43 0
-9 -44 0
-10 -45 0
-6 -81 0
-7 -82 0
-8 -83 0
-9 -84 0
-10 -85 0
-6 -126 0
-7 -127 0
-8 -128 0
-9 -129 0
-10 -130 0
-6 -141 0
-7 -142 0
-8 -143 0
-9 -144 0
-10 -145 0
-6 -296 0
-7 -297 0
-8 -298 0
-9 -299 0
-10 -300 0
-6 -306 0
-7 -307 0
-8 -308 0
-9 -309 0
-10 -310 0
-6 -331 0
-7 -332 0
-8 -333 0
-9 -334 0
-10 -335 0
-6 -361 0
-7 -362 0
-8 -363 0
-9 -364 0
-10 -365 0
-6 -366 0
-7 -367 0
-8 -368 0
-9 -369 0
-10 -370 0
-6 -401 0
-7 -402 0
-8 -403 0
-9 -404 0
-10 -405 0
-6 -431 0
-7 -432 0
-8 -433 0
-9 -434 0
-10 -435 0
-6 -446 0
-7 -447 0
-8 -448 0
-9 -449 0
-10 -450 0
-11 -206 0
-12 -207 0
-13 -208 0
-14 -209 0
-15 -210 0
-11 -376 0
-12 -377 0
-13 -378 0
-14 -379 0
-15 -380 0
-11 -436 0
-12 -437 0
-13 -438 0
-14 -439 0
-15 -440 0
-16 -116 0
-17 -117 0
-18 -118 0
-19 -119 0
-20 -120 0
-16 -231 0
-17 -232 0
-18 -233 0
-19 -234 0
-20 -235 0
-21 -56 0
-22 -57 0
-23 -58 0
-24 -59 0
-25 -60 0
-21 -86 0
-22 -87 0
-23 -88 0
-24 -89 0
-25 -90 0
-21 -156 0
-22 -157 0
-23 -158 0
-24 -159 0
-25 -160 0
-21 -166 0
-22 -167 0
-23 -168 0
-24 -169 0
-25 -170 0
-21 -276 0
-22 -277 0
-23 -278 0
-24 -279 0
-25 -280 0
-21 -366 0
-22 -367 0
-23 -368 0
-24 -369 0
-25 -370 0
-21 -426 0
-22 -427 0
-23 -428 0
-24 -429 0
-25 -430 0
-21 -456 0
-22 -457 0
-23 -458 0
-24 -459 0
-25 -460 0
-26 -66 0
-27 -67 0
-28 -68 0
-29 -69 0
-30 -70 0
-26 -221 0
-27 -222 0
-28 -223 0
-29 -224 0
-30 -225 0
-26 -286 0
-27 -287 0
-28 -288 0
-29 -289 0
-30 -290 0
-26 -311 0
-27 -312 0
-28 -313 0
-29 -314 0
-30 -315 0
-26 -396 0
-27 -397 0
-28 -398 0
-29 -399 0
-30 -400 0
-26 -406 0
-27 -407 0
-28 -408 0
-29 -409 0
-30 -410 0
-31 -76 0
-32 -77 0
-33 -78 0
-34 -79 0
-35 -80 0
-31 -171 0
-32 -172 0
-33 -173 0
-34 -174 0
-35 -175 0
-31 -176 0
-32 -177 0
-33 -178 0
-34 -179 0
-35 -180 0
-31 -181 0
-32 -182 0
-33 -183 0
-34 -184 0
-35 -185 0
-31 -206 0
-32 -207 0
-33 -208 0
-34 -209 0
-35 -210 0
-31 -216 0
-32 -217 0
-33 -218 0
-34 -219 0
-35 -220 0
-31 -246 0
-32 -247 0
-33 -248 0
-34 -249 0
-35 -250 0
-31 -276 0
-32 -277 0
-33 -278 0
-34 -279 0
-35 -280 0
-31 -331 0
-32 -332 0
-33 -333 0
-34 -334 0
-35 -335 0
-31 -336 0
-32 -337 0
-33 -338 0
-34 -339 0
-35 -340 0
-31 -376 0
-32 -377 0
-33 -378 0
-34 -379 0
-35 -380 0
-31 -421 0
-32 -422 0
-33 -423 0
-34 -424 0
-35 -425 0
-31 -451 0
-32 -452 0
-33 -453 0
-34 -454 0
-35 -455 0
-31 -456 0
-32 -457 0
-33 -458 0
-34 -459 0
-35 -460 0
-36 -91 0
-37 -92 0
-38 -93 0
-39 -94 0
-40 -95 0
-36 -116 0
-37 -117 0
-38 -118 0
-39 -119 0
-40 -120 0
-36 -151 0
-37 -152 0
-38 -153 0
-39 -154 0
-40 -155 0
-36 -231 0
-37 -232 0
-38 -233 0
-39 -234 0
-40 -235 0
-36 -336 0
-37 -337 0
-38 -338 0
-39 -339 0
-40 -340 0
-36 -386 0
-37 -387 0
-38 -388 0
-39 -389 0
-40 -390 0
-36 -396 0
-37 -397 0
-38 -398 0
-39 -399 0
-40 -400 0
-36 -411 0
-37 -412 0
-38 -413 0
-39 -414 0
-40 -415 0
-36 -461 0
-37 -462 0
-38 -463 0
-39 -464 0
-40 -465 0
-41 -186 0
-42 -187 0
-43 -188 0
-44 -189 0
-45 -190 0
-41 -191 0
-42 -192 0
-43 -193 0
-44 -194 0
-45 -195 0
-41 -336 0
-42 -337 0
-43 -338 0
-44 -339 0
-45 -340 0
-46 -86 0
-47 -87 0
-48 -88 0
-49 -89 0
-50 -90 0
-46 -171 0
-47 -172 0
-48 -173 0
-49 -174 0
-50 -175 0
-46 -246 0
-47 -247 0
-48 -248 0
-49 -249 0
-50 -250 0
-46 -276 0
-47 -277 0
-48 -278 0
-49 -279 0
-50 -280 0
-46 -281 0
-47 -282 0
-48 -283 0
-49 -284 0
-50 -285 0
-46 -296 0
-47 -297 0
-48 -298 0
-49 -299 0
-50 -300 0
-46 -376 0
-47 -377 0
-48 -378 0
-49 -379 0
-50 -380 0
-51 -131 0
-52 -132 0
-53 -133 0
-54 -134 0
-55 -135 0
-51 -286 0
-52 -287 0
-53 -288 0
-54 -289 0
-55 -290 0
-51 -346 0
-52 -347 0
-53 -348 0
-54 -349 0
-55 -350 0
-51 -401 0
-52 -402 0
-53 -403 0
-54 -404 0
-55 -405 0
-51 -441 0
-52 -442 0
-53 -443 0
-54 -444 0
-55 -445 0
-51 -481 0
-52 -482 0
-53 -483 0
-54 -484 0
-55 -485 0
-51 -486 0
-52 -487 0
-53 -488 0
-54 -489 0
-55 -490 0
-56 -101 0
-57 -102 0
-58 -103 0
-59 -104 0
-60 -105 0
-56 -161 0
-57 -162 0
-58 -163 0
-59 -164 0
-60 -165 0
-56 -186 0
-57 -187 0
-58 -188 0
-59 -189 0
-60 -190 0
-56 -251 0
-57 -252 0
-58 -253 0
-59 -254 0
-60 -255 0
-56 -346 0
-57 -347 0
-58 -348 0
-59 -349 0
-60 -350 0
-56 -381 0
-57 -382 0
-58 -383 0
-59 -384 0
-60 -385 0
-56 -486 0
-57 -487 0
-58 -488 0
-59 -489 0
-60 -490 0
-61 -106 0
-62 -107 0
-63 -108 0
-64 -109 0
-65 -110 0
-61 -116 0
-62 -117 0
-63 -118 0
-64 -119 0
-65 -120 0
-61 -121 0
-62 -122 0
-63 -123 0
-64 -124 0
-65 -125 0
-61 -156 0
-62 -157 0
-63 -158 0
-64 -159 0
-65 -160 0
-61 -171 0
-62 -172 0
-63 -173 0
-64 -174 0
-65 -175 0
-61 -226 0
-62 -227 0
-63 -228 0
-64 -229 0
-65 -230 0
-61 -246 0
-62 -247 0
-63 -248 0
-64 -249 0
-65 -250 0
-61 -266 0
-62 -267 0
-63 -268 0
-64 -269 0
-65 -270 0
-61 -271 0
-62 -272 0
-63 -273 0
-64 -274 0
-65 -275 0
-61 -281 0
-62 -282 0
-63 -283 0
-64 -284 0
-65 -285 0
-61 -316 0
-62 -317 0
-63 -318 0
-64 -319 0
-65 -320 0
-61 -321 0
-62 -322 0
-63 -323 0
-64 -324 0
-65 -325 0
-61 -391 0
-62 -392 0
-63 -393 0
-64 -394 0
-65 -395 0
-66 -186 0
-67 -187 0
-68 -188 0
-69 -189 0
-70 -190 0
-66 -236 0
-67 -237 0
-68 -238 0
-69 -239 0
-70 -240 0
-66 -261 0
-67 -262 0
-68 -263 0
-69 -264 0
-70 -265 0
-66 -316 0
-67 -317 0
-68 -318 0
-69 -319 0
-70 -320 0
-66 -336 0
-67 -337 0
-68 -338 0
-69 -339 0
-70 -340 0
-66 -396 0
-67 -397 0
-68 -398 0
-69 -399 0
-70 -400 0
-71 -161 0
-72 -162 0
-73 -163 0
-74 -164 0
-75 -165 0
-71 -176 0
-72 -177 0
-73 -178 0
-74 -179 0
-75 -180 0
-71 -241 0
-72 -242 0
-73 -243 0
-74 -244 0
-75 -245 0
-71 -351 0
-72 -352 0
-73 -353 0
-74 -354 0
-75 -355 0
-76 -136 0
-77 -137 0
-78 -138 0
-79 -139 0
-80 -140 0
-76 -206 0
-77 -207 0
-78 -208 0
-79 -209 0
-80 -210 0
-76 -216 0
-77 -217 0
-78 -218 0
-79 -219 0
-80 -220 0
-76 -221 0
-77 -222 0
-78 -223 0
-79 -224 0
-80 -225 0
-76 -276 0
-77 -277 0
-78 -278 0
-79 -279 0
-80 -280 0
-76 -286 0
-77 -287 0
-78 -288 0
-79 -289 0
-80 -290 0
-76 -376 0
-77 -377 0
-78 -378 0
-79 -379 0
-80 -380 0
-76 -391 0
-77 -392 0
-78 -393 0
-79 -394 0
-80 -395 0
-76 -406 0
-77 -407 0
-78 -408 0
-79 -409 0
-80 -410 0
-76 -456 0
-77 -457 0
-78 -458 0
-79 -459 0
-80 -460 0
-81 -116 0
-82 -117 0
-83 -118 0
-84 -119 0
-85 -120 0
-81 -271 0
-82 -272 0
-83 -273 0
-84 -274 0
-85 -275 0
-81 -326 0
-82 -327 0
-83 -328 0
-84 -329 0
-85 -330 0
-86 -146 0
-87 -147 0
-88 -148 0
-89 -149 0
-90 -150 0
-86 -291 0
-87 -292 0
-88 -293 0
-89 -294 0
-90 -295 0
-86 -296 0
-87 -297 0
-88 -298 0
-89 -299 0
-90 -300 0
-86 -301 0
-87 -302 0
-88 -303 0
-89 -304 0
-90 -305 0
-86 -411 0
-87 -412 0
-88 -413 0
-89 -414 0
-90 -415 0
-86 -446 0
-87 -447 0
-88 -448 0
-89 -449 0
-90 -450 0
-91 -246 0
-92 -247 0
-93 -248 0
-94 -249 0
-95 -250 0
-91 -256 0
-92 -257 0
-93 -258 0
-94 -259 0
-95 -260 0
-91 -316 0
-92 -317 0
-93 -318 0
-94 -319 0
-95 -320 0
-91 -321 0
-92 -322 0
-93 -323 0
-94 -324 0
-95 -325 0
-91 -376 0
-92 -377 0
-93 -378 0
-94 -379 0
-95 -380 0
-91 -411 0
-92 -412 0
-93 -413 0
-94 -414 0
-95 -415 0
-91 -421 0
-92 -422 0
-93 -423 0
-94 -424 0
-95 -425 0
-91 -471 0
-92 -472 0
-93 -473 0
-94 -474 0
-95 -475 0
-96 -191 0
-97 -192 0
-98 -193 0
-99 -194 0
-100 -195 0
-96 -271 0
-97 -272 0
-98 -273 0
-99 -274 0
-100 -275 0
-96 -306 0
-97 -307 0
-98 -308 0
-99 -309 0
-100 -310 0
-96 -461 0
-97 -462 0
-98 -463 0
-99 -464 0
-100 -465 0
-101 -136 0
-102 -137 0
-103 -138 0
-104 -139 0
-105 -140 0
-101 -296 0
-102 -297 0
-103 -298 0
-104 -299 0
-105 -300 0
-101 -301 0
-102 -302 0
-103 -303 0
-104 -304 0
-105 -305 0
-101 -336 0
-102 -337 0
-103 -338 0
-104 -339 0
-105 -340 0
-106 -136 0
-107 -137 0
-108 -138 0
-109 -139 0
-110 -140 0
-106 -151 0
-107 -152 0
-108 -153 0
-109 -154 0
-110 -155 0
-106 -216 0
-107 -217 0
-108 -218 0
-109 -219 0
-110 -220 0
-106 -231 0
-107 -232 0
-108 -233 0
-109 -234 0
-110 -235 0
-106 -236 0
-107 -237 0
-108 -238 0
-109 -239 0
-110 -240 0
-106 -366 0
-107 -367 0
-108 -368 0
-109 -369 0
-110 -370 0
-106 -436 0
-107 -437 0
-108 -438 0
-109 -439 0
-110 -440 0
-106 -446 0
-107 -447 0
-108 -448 0
-109 -449 0
-110 -450 0
-106 -451 0
-107 -452 0
-108 -453 0
-109 -454 0
-110 -455 0
-106 -461 0
-107 -462 0
-108 -463 0
-109 -464 0
-110 -465 0
-111 -331 0
-112 -332 0
-113 -333 0
-114 -334 0
-115 -335 0
-111 -346 0
-112 -347 0
-113 -348 0
-114 -349 0
-115 -350 0
-111 -396 0
-112 -397 0
-113 -398 0
-114 -399 0
-115 -400 0
-111 -461 0
-112 -462 0
-113 -463 0
-114 -464 0
-115 -465 0
-111 -481 0
-112 -482 0
-113 -483 0
-114 -484 0
-115 -485 0
-116 -181 0
-117 -182 0
-118 -183 0
-119 -184 0
-120 -185 0
-116 -341 0
-117 -342 0
-118 -343 0
-119 -344 0
-120 -345 0
-116 -376 0
-117 -377 0
-118 -378 0
-119 -379 0
-120 -380 0
-116 -446 0
-117 -447 0
-118 -448 0
-119 -449 0
-120 -450 0
-121 -166 0
-122 -167 0
-123 -168 0
-124 -169 0
-125 -170 0
-121 -411 0
-122 -412 0
-123 -413 0
-124 -414 0
-125 -415 0
-121 -456 0
-122 -457 0
-123 -458 0
-124 -459 0
-125 -460 0
-121 -466 0
-122 -467 0
-123 -468 0
-124 -469 0
-125 -470 0
-126 -181 0
-127 -182 0
-128 -183 0
-129 -184 0
-130 -185 0
-126 -201 0
-127 -202 0
-128 -203 0
-129 -204 0
-130 -205 0
-126 -316 0
-127 -317 0
-128 -318 0
-129 -319 0
-130 -320 0
-126 -431 0
-127 -432 0
-128 -433 0
-129 -434 0
-130 -435 0
-131 -391 0
-132 -392 0
-133 -393 0
-134 -394 0
-135 -395 0
-131 -426 0
-132 -427 0
-133 -428 0
-134 -429 0
-135 -430 0
-136 -396 0
-137 -397 0
-138 -398 0
-139 -399 0
-140 -400 0
-136 -481 0
-137 -482 0
-138 -483 0
-139 -484 0
-140 -485 0
-141 -186 0
-142 -187 0
-143 -188 0
-144 -189 0
-145 -190 0
-141 -241 0
-142 -242 0
-143 -243 0
-144 -244 0
-145 -245 0
-141 -251 0
-142 -252 0
-143 -253 0
-144 -254 0
-145 -255 0
-141 -301 0
-142 -302 0
-143 -303 0
-144 -304 0
-145 -305 0
-141 -381 0
-142 -382 0
-143 -383 0
-144 -384 0
-145 -385 0
-141 -421 0
-142 -422 0
-143 -423 0
-144 -424 0
-145 -425 0
-141 -456 0
-142 -457 0
-143 -458 0
-144 -459 0
-145 -460 0
-141 -461 0
-142 -462 0
-143 -463 0
-144 -464 0
-145 -465 0
-146 -341 0
-147 -342 0
-148 -343 0
-149 -344 0
-150 -345 0
-146 -406 0
-147 -407 0
-148 -408 0
-149 -409 0
-150 -410 0
-146 -411 0
-147 -412 0
-148 -413 0
-149 -414 0
-150 -415 0
-146 -481 0
-147 -482 0
-148 -483 0
-149 -484 0
-150 -485 0
-151 -181 0
-152 -182 0
-153 -183 0
-154 -184 0
-155 -185 0
-151 -236 0
-152 -237 0
-153 -238 0
-154 -239 0
-155 -240 0
-151 -306 0
-152 -307 0
-153 -308 0
-154 -309 0
-155 -310 0
-151 -346 0
-152 -347 0
-153 -348 0
-154 -349 0
-155 -350 0
-151 -351 0
-152 -352 0
-153 -353 0
-154 -354 0
-155 -355 0
-151 -396 0
-152 -397 0
-153 -398 0
-154 -399 0
-155 -400 0
-151 -421 0
-152 -422 0
-153 -423 0
-154 -424 0
-155 -425 0
-151 -441 0
-152 -442 0
-153 -443 0
-154 -444 0
-155 -445 0
-151 -461 0
-152 -462 0
-153 -463 0
-154 -464 0
-155 -465 0
-151 -481 0
-152 -482 0
-153 -483 0
-154 -484 0
-155 -485 0
-156 -191 0
-157 -192 0
-158 -193 0
-159 -194 0
-160 -195 0
-156 -231 0
-157 -232 0
-158 -233 0
-159 -234 0
-160 -235 0
-156 -371 0
-157 -372 0
-158 -373 0
-159 -374 0
-160 -375 0
-156 -376 0
-157 -377 0
-158 -378 0
-159 -379 0
-160 -380 0
-161 -186 0
-162 -187 0
-163 -188 0
-164 -189 0
-165 -190 0
-161 -196 0
-162 -197 0
-163 -198 0
-164 -199 0
-165 -200 0
-161 -211 0
-162 -212 0
-163 -213 0
-164 -214 0
-165 -215 0
-161 -251 0
-162 -252 0
-163 -253 0
-164 -254 0
-165 -255 0
-161 -311 0
-162 -312 0
-163 -313 0
-164 -314 0
-165 -315 0
-161 -316 0
-162 -317 0
-163 -318 0
-164 -319 0
-165 -320 0
-161 -361 0
-162 -362 0
-163 -363 0
-164 -364 0
-165 -365 0
-161 -366 0
-162 -367 0
-163 -368 0
-164 -369 0
-165 -370 0
-161 -381 0
-162 -382 0
-163 -383 0
-164 -384 0
-165 -385 0
-161 -386 0
-162 -387 0
-163 -388 0
-164 -389 0
-165 -390 0
-161 -391 0
-162 -392 0
-163 -393 0
-164 -394 0
-165 -395 0
-161 -421 0
-162 -422 0
-163 -423 0
-164 -424 0
-165 -425 0
-166 -216 0
-167 -217 0
-168 -218 0
-169 -219 0
-170 -220 0
-166 -251 0
-167 -252 0
-168 -253 0
-169 -254 0
-170 -255 0
-166 -321 0
-167 -322 0
-168 -323 0
-169 -324 0
-170 -325 0
-166 -326 0
-167 -327 0
-168 -328 0
-169 -329 0
-170 -330 0
-166 -391 0
-167 -392 0
-168 -393 0
-169 -394 0
-170 -395 0
-166 -421 0
-167 -422 0
-168 -423 0
-169 -424 0
-170 -425 0
-166 -446 0
-167 -447 0
-168 -448 0
-169 -449 0
-170 -450 0
-166 -476 0
-167 -477 0
-168 -478 0
-169 -479 0
-170 -480 0
-171 -311 0
-172 -312 0
-173 -313 0
-174 -314 0
-175 -315 0
-171 -336 0
-172 -337 0
-173 -338 0
-174 -339 0
-175 -340 0
-171 -346 0
-172 -347 0
-173 -348 0
-174 -349 0
-175 -350 0
-171 -421 0
-172 -422 0
-173 -423 0
-174 -424 0
-175 -425 0
-176 -221 0
-177 -222 0
-178 -223 0
-179 -224 0
-180 -225 0
-176 -236 0
-177 -237 0
-178 -238 0
-179 -239 0
-180 -240 0
-176 -301 0
-177 -302 0
-178 -303 0
-179 -304 0
-180 -305 0
-176 -401 0
-177 -402 0
-178 -403 0
-179 -404 0
-180 -405 0
-176 -416 0
-177 -417 0
-178 -418 0
-179 -419 0
-180 -420 0
-181 -301 0
-182 -302 0
-183 -303 0
-184 -304 0
-185 -305 0
-181 -401 0
-182 -402 0
-183 -403 0
-184 -404 0
-185 -405 0
-181 -416 0
-182 -417 0
-183 -418 0
-184 -419 0
-185 -420 0
-181 -491 0
-182 -492 0
-183 -493 0
-184 -494 0
-185 -495 0
-186 -281 0
-187 -282 0
-188 -283 0
-189 -284 0
-190 -285 0
-186 -306 0
-187 -307 0
-188 -308 0
-189 -309 0
-190 -310 0
-186 -366 0
-187 -367 0
-188 -368 0
-189 -369 0
-190 -370 0
-186 -461 0
-187 -462 0
-188 -463 0
-189 -464 0
-190 -465 0
-186 -496 0
-187 -497 0
-188 -498 0
-189 -499 0
-190 -500 0
-191 -276 0
-192 -277 0
-193 -278 0
-194 -279 0
-195 -280 0
-191 -291 0
-192 -292 0
-193 -293 0
-194 -294 0
-195 -295 0
-196 -221 0
-197 -222 0
-198 -223 0
-199 -224 0
-200 -225 0
-196 -276 0
-197 -277 0
-198 -278 0
-199 -279 0
-200 -280 0
-196 -311 0
-197 -312 0
-198 -313 0
-199 -314 0
-200 -315 0
-196 -371 0
-197 -372 0
-198 -373 0
-199 -374 0
-200 -375 0
-196 -431 0
-197 -432 0
-198 -433 0
-199 -434 0
-200 -435 0
-196 -441 0
-197 -442 0
-198 -443 0
-199 -444 0
-200 -445 0
-196 -496 0
-197 -497 0
-198 -498 0
-199 -499 0
-200 -500 0
-201 -236 0
-202 -237 0
-203 -238 0
-204 -239 0
-205 -240 0
-201 -266 0
-202 -267 0
-203 -268 0
-204 -269 0
-205 -270 0
-206 -286 0
-207 -287 0
-208 -288 0
-209 -289 0
-210 -290 0
-206 -291 0
-207 -292 0
-208 -293 0
-209 -294 0
-210 -295 0
-206 -356 0
-207 -357 0
-208 -358 0
-209 -359 0
-210 -360 0
-206 -376 0
-207 -377 0
-208 -378 0
-209 -379 0
-210 -380 0
-206 -386 0
-207 -387 0
-208 -388 0
-209 -389 0
-210 -390 0
-206 -426 0
-207 -427 0
-208 -428 0
-209 -429 0
-210 -430 0
-211 -271 0
-212 -272 0
-213 -273 0
-214 -274 0
-215 -275 0
-211 -281 0
-212 -282 0
-213 -283 0
-214 -284 0
-215 -285 0
-211 -381 0
-212 -382 0
-213 -383 0
-214 -384 0
-215 -385 0
-211 -391 0
-212 -392 0
-213 -393 0
-214 -394 0
-215 -395 0
-211 -421 0
-212 -422 0
-213 -423 0
-214 -424 0
-215 -425 0
-211 -451 0
-212 -452 0
-213 -453 0
-214 -454 0
-215 -455 0
-216 -246 0
-217 -247 0
-218 -248 0
-219 -249 0
-220 -250 0
-216 -306 0
-217 -307 0
-218 -308 0
-219 -309 0
-220 -310 0
-216 -351 0
-217 -352 0
-218 -353 0
-219 -354 0
-220 -355 0
-216 -381 0
-217 -382 0
-218 -383 0
-219 -384 0
-220 -385 0
-216 -391 0
-217 -392 0
-218 -393 0
-219 -394 0
-220 -395 0
-216 -446 0
-217 -447 0
-218 -448 0
-219 -449 0
-220 -450 0
-221 -311 0
-222 -312 0
-223 -313 0
-224 -314 0
-225 -315 0
-221 -451 0
-222 -452 0
-223 -453 0
-224 -454 0
-225 -455 0
-221 -466 0
-222 -467 0
-223 -468 0
-224 -469 0
-225 -470 0
-221 -496 0
-222 -497 0
-223 -498 0
-224 -499 0
-225 -500 0
-226 -366 0
-227 -367 0
-228 -368 0
-229 -369 0
-230 -370 0
-226 -396 0
-227 -397 0
-228 -398 0
-229 -399 0
-230 -400 0
-226 -471 0
-227 -472 0
-228 -473 0
-229 -474 0
-230 -475 0
-231 -281 0
-232 -282 0
-233 -283 0
-234 -284 0
-235 -285 0
-231 -311 0
-232 -312 0
-233 -313 0
-234 -314 0
-235 -315 0
-231 -441 0
-232 -442 0
-233 -443 0
-234 -444 0
-235 -445 0
-236 -301 0
-237 -302 0
-238 -303 0
-239 -304 0
-240 -305 0
-236 -306 0
-237 -307 0
-238 -308 0
-239 -309 0
-240 -310 0
-236 -346 0
-237 -347 0
-238 -348 0
-239 -349 0
-240 -350 0
-236 -356 0
-237 -357 0
-238 -358 0
-239 -359 0
-240 -360 0
-236 -421 0
-237 -422 0
-238 -423 0
-239 -424 0
-240 -425 0
-236 -431 0
-237 -432 0
-238 -433 0
-239 -434 0
-240 -435 0
-236 -436 0
-237 -437 0
-238 -438 0
-239 -439 0
-240 -440 0
-236 -486 0
-237 -487 0
-238 -488 0
-239 -489 0
-240 -490 0
-241 -376 0
-242 -377 0
-243 -378 0
-244 -379 0
-245 -380 0
-241 -476 0
-242 -477 0
-243 -478 0
-244 -479 0
-245 -480 0
-246 -361 0
-247 -362 0
-248 -363 0
-249 -364 0
-250 -365 0
-246 -366 0
-247 -367 0
-248 -368 0
-249 -369 0
-250 -370 0
-246 -386 0
-247 -387 0
-248 -388 0
-249 -389 0
-250 -390 0
-246 -396 0
-247 -397 0
-248 -398 0
-249 -399 0
-250 -400 0
-251 -346 0
-252 -347 0
-253 -348 0
-254 -349 0
-255 -350 0
-251 -491 0
-252 -492 0
-253 -493 0
-254 -494 0
-255 -495 0
-256 -291 0
-257 -292 0
-258 -293 0
-259 -294 0
-260 -295 0
-256 -331 0
-257 -332 0
-258 -333 0
-259 -334 0
-260 -335 0
-256 -336 0
-257 -337 0
-258 -338 0
-259 -339 0
-260 -340 0
-256 -471 0
-257 -472 0
-258 -473 0
-259 -474 0
-260 -475 0
-256 -491 0
-257 -492 0
-258 -493 0
-259 -494 0
-260 -495 0
-256 -496 0
-257 -497 0
-258 -498 0
-259 -499 0
-260 -500 0
-266 -316 0
-267 -317 0
-268 -318 0
-269 -319 0
-270 -320 0
-266 -361 0
-267 -362 0
-268 -363 0
-269 -364 0
-270 -365 0
-266 -486 0
-267 -487 0
-268 -488 0
-269 -489 0
-270 -490 0
-266 -496 0
-267 -497 0
-268 -498 0
-269 -499 0
-270 -500 0
-271 -306 0
-272 -307 0
-273 -308 0
-274 -309 0
-275 -310 0
-271 -391 0
-272 -392 0
-273 -393 0
-274 -394 0
-275 -395 0
-276 -421 0
-277 -422 0
-278 -423 0
-279 -424 0
-280 -425 0
-281 -391 0
-282 -392 0
-283 -393 0
-284 -394 0
-285 -395 0
-281 -451 0
-282 -452 0
-283 -453 0
-284 -454 0
-285 -455 0
-281 -481 0
-282 -482 0
-283 -483 0
-284 -484 0
-285 -485 0
-286 -331 0
-287 -332 0
-288 -333 0
-289 -334 0
-290 -335 0
-286 -376 0
-287 -377 0
-288 -378 0
-289 -379 0
-290 -380 0
-291 -381 0
-292 -382 0
-293 -383 0
-294 -384 0
-295 -385 0
-291 -456 0
-292 -457 0
-293 -458 0
-294 -459 0
-295 -460 0
-296 -386 0
-297 -387 0
-298 -388 0
-299 -389 0
-300 -390 0
-301 -396 0
-302 -397 0
-303 -398 0
-304 -399 0
-305 -400 0
-301 -401 0
-302 -402 0
-303 -403 0
-304 -404 0
-305 -405 0
-301 -426 0
-302 -427 0
-303 -428 0
-304 -429 0
-305 -430 0
-306 -491 0
-307 -492 0
-308 -493 0
-309 -494 0
-310 -495 0
-321 -421 0
-322 -422 0
-323 -423 0
-324 -424 0
-325 -425 0
-321 -446 0
-322 -447 0
-323 -448 0
-324 -449 0
-325 -450 0
-326 -351 0
-327 -352 0
-328 -353 0
-329 -354 0
-330 -355 0
-326 -361 0
-327 -362 0
-328 -363 0
-329 -364 0
-330 -365 0
-326 -391 0
-327 -392 0
-328 -393 0
-329 -394 0
-330 -395 0
-326 -466 0
-327 -467 0
-328 -468 0
-329 -469 0
-330 -470 0
-331 -361 0
-332 -362 0
-333 -363 0
-334 -364 0
-335 -365 0
-331 -381 0
-332 -382 0
-333 -383 0
-334 -384 0
-335 -385 0
-331 -436 0
-332 -437 0
-333 -438 0
-334 -439 0
-335 -440 0
-331 -456 0
-332 -457 0
-333 -458 0
-334 -459 0
-335 -460 0
-331 -471 0
-332 -472 0
-333 -473 0
-334 -474 0
-335 -475 0
-331 -486 0
-332 -487 0
-333 -488 0
-334 -489 0
-335 -490 0
-336 -366 0
-337 -367 0
-338 -368 0
-339 -369 0
-340 -370 0
-336 -441 0
-337 -442 0
-338 -443 0
-339 -444 0
-340 -445 0
-336 -481 0
-337 -482 0
-338 -483 0
-339 -484 0
-340 -485 0
-341 -461 0
-342 -462 0
-343 -463 0
-344 -464 0
-345 -465 0
-341 -466 0
-342 -467 0
-343 -468 0
-344 -469 0
-345 -470 0
-341 -471 0
-342 -472 0
-343 -473 0
-344 -474 0
-345 -475 0
-346 -396 0
-347 -397 0
-348 -398 0
-349 -399 0
-350 -400 0
-346 -421 0
-347 -422 0
-348 -423 0
-349 -424 0
-350 -425 0
-346 -441 0
-347 -442 0
-348 -443 0
-349 -444 0
-350 -445 0
-351 -436 0
-352 -437 0
-353 -438 0
-354 -439 0
-355 -440 0
-351 -461 0
-352 -462 0
-353 -463 0
-354 -464 0
-355 -465 0
-351 -481 0
-352 -482 0
-353 -483 0
-354 -484 0
-355 -485 0
-356 -381 0
-357 -382 0
-358 -383 0
-359 -384 0
-360 -385 0
-361 -456 0
-362 -457 0
-363 -458 0
-364 -459 0
-365 -460 0
-366 -401 0
-367 -402 0
-368 -403 0
-369 -404 0
-370 -405 0
-366 -421 0
-367 -422 0
-368 -423 0
-369 -424 0
-370 -425 0
-366 -431 0
-367 -432 0
-368 -433 0
-369 -434 0
-370 -435 0
-371 -411 0
-372 -412 0
-373 -413 0
-374 -414 0
-375 -415 0
-371 -421 0
-372 -422 0
-373 -423 0
-374 -424 0
-375 -425 0
-376 -481 0
-377 -482 0
-378 -483 0
-379 -484 0
-380 -485 0
-381 -446 0
-382 -447 0
-383 -448 0
-384 -449 0
-385 -450 0
-381 -486 0
-382 -487 0
-383 -488 0
-384 -489 0
-385 -490 0
-386 -441 0
-387 -442 0
-388 -443 0
-389 -444 0
-390 -445 0
-386 -461 0
-387 -462 0
-388 -463 0
-389 -464 0
-390 -465 0
-391 -456 0
-392 -457 0
-393 -458 0
-394 -459 0
-395 -460 0
-396 -446 0
-397 -447 0
-398 -448 0
-399 -449 0
-400 -450 0
-396 -456 0
-397 -457 0
-398 -458 0
-399 -459 0
-400 -460 0
-406 -471 0
-407 -472 0
-408 -473 0
-409 -474 0
-410 -475 0
-416 -446 0
-417 -447 0
-418 -448 0
-419 -449 0
-420 -450 0
-416 -486 0
-417 -487 0
-418 -488 0
-419 -489 0
-420 -490 0
-416 -496 0
-417 -497 0
-418 -498 0
-419 -499 0
-420 -500 0
-426 -456 0
-427 -457 0
-428 -458 0
-429 -459 0
-430 -460 0
-431 -471 0
-432 -472 0
-433 -473 0
-434 -474 0
-435 -475 0
-436 -461 0
-437 -462 0
-438 -463 0
-439 -464 0
-440 -465 0
-436 -466 0
-437 -467 0
-438 -468 0
-439 -469 0
-440 -470 0
-436 -476 0
-437 -477 0
-438 -478 0
-439 -479 0
-440 -480 0
-441 -491 0
-442 -492 0
-443 -493 0
-444 -494 0
-445 -495 0
